\ Model vert
\ LP format - for model browsing. Use MPS format to capture full model detail.
Minimize
  2.0116603759818044e+08 S_coef + 4.1136958705119174e+06 Constant + [
   4.918663892126358e+09 S_coef ^2 ] / 2 
Subject To
Bounds
 -1000 <= S_coef <= 1000
 Constant = 1
End
